u120_07
150 120 49 53
61 0
96 1
91 2
37 0
53 1
76 3
50 0
66 3
70 4
87 5
92 6
35 2
53 4
95 7
47 5
56 6
55 8
86 8
32 7
99 9
83 10
88 11
41 9
63 10
77 12
60 11
66 12
53 13
79 13
81 14
96 15
34 14
99 16
47 15
74 17
87 18
44 16
77 19
52 17
99 20
69 19
64 21
94 22
38 18
69 21
61 23
98 24
40 20
84 23
89 25
49 22
64 26
53 25
41 24
34 14
85 26
35 27
55 27
61 28
68 28
100 29
75 30
98 31
36 27
44 29
57 30
24 4
60 32
45 31
48 32
60 33
94 34
71 33
70 35
64 35
62 36
93 37
20 2
69 36
37 32
63 38
61 38
26 34
54 37
89 39
46 39
54 40
50 40
32 40
71 41
62 41
40 42
26 34
59 42
62 43
27 42
60 43
50 44
74 44
34 45
40 45
70 45
56 46
23 17
66 46
57 47
43 47
45 47
65 48
25 38
82 48
82 49
37 49
66 50
47 50
44 51
94 51
23 18
24 43
51 52